(set-option :produce-models true); benchmark generated from python API
(set-info :status unknown)
(declare-fun l_1_0_9 () Real)
(declare-fun l_1_0_8 () Real)
(declare-fun l_1_0_7 () Real)
(declare-fun l_1_0_6 () Real)
(declare-fun l_1_0_5 () Real)
(declare-fun l_1_0_4 () Real)
(declare-fun l_1_0_3 () Real)
(declare-fun l_1_0_2 () Real)
(declare-fun l_1_0_15 () Real)
(declare-fun l_1_0_14 () Real)
(declare-fun l_1_0_13 () Real)
(declare-fun l_1_0_12 () Real)
(declare-fun l_1_0_11 () Real)
(declare-fun l_1_0_10 () Real)
(declare-fun l_1_0_1 () Real)
(declare-fun _a_0_ () Real)
(declare-fun l_1_0_19 () Real)
(declare-fun l_1_0_17 () Real)
(declare-fun l_1_0_18 () Real)
(declare-fun l_1_0_16 () Real)
(declare-fun _a_1_ () Real)
(declare-fun _a_2_ () Real)
(declare-fun _a_3_ () Real)
(declare-fun l_1_0_20 () Real)
(declare-fun _a_4_ () Real)
(declare-fun _a_5_ () Real)
(declare-fun l_1_1_8 () Real)
(declare-fun l_1_1_7 () Real)
(declare-fun l_1_1_6 () Real)
(declare-fun l_1_1_5 () Real)
(declare-fun l_1_1_4 () Real)
(declare-fun l_1_1_3 () Real)
(declare-fun l_1_1_15 () Real)
(declare-fun l_1_1_14 () Real)
(declare-fun l_1_1_13 () Real)
(declare-fun l_1_1_12 () Real)
(declare-fun l_1_1_9 () Real)
(declare-fun l_1_1_2 () Real)
(declare-fun l_1_1_11 () Real)
(declare-fun l_1_1_10 () Real)
(declare-fun l_1_1_1 () Real)
(declare-fun l_1_1_17 () Real)
(declare-fun l_1_1_16 () Real)
(declare-fun l_1_1_20 () Real)
(declare-fun l_1_1_19 () Real)
(declare-fun l_1_1_18 () Real)
(declare-fun l_1_2_7 () Real)
(declare-fun l_1_2_6 () Real)
(declare-fun l_1_2_5 () Real)
(declare-fun l_1_2_4 () Real)
(declare-fun l_1_2_2 () Real)
(declare-fun l_1_2_15 () Real)
(declare-fun l_1_2_14 () Real)
(declare-fun l_1_2_13 () Real)
(declare-fun l_1_2_11 () Real)
(declare-fun l_1_2_1 () Real)
(declare-fun l_1_2_9 () Real)
(declare-fun l_1_2_8 () Real)
(declare-fun l_1_2_3 () Real)
(declare-fun l_1_2_12 () Real)
(declare-fun l_1_2_10 () Real)
(declare-fun l_1_2_17 () Real)
(declare-fun l_1_2_16 () Real)
(declare-fun l_1_2_20 () Real)
(declare-fun l_1_2_19 () Real)
(declare-fun l_1_2_18 () Real)
(assert
 (let ((?x1710 (* (/ 7.0 20.0) l_1_0_9)))
 (let ((?x757 (* (/ 7.0 20.0) l_1_0_8)))
 (let ((?x1118 (* (/ 7.0 20.0) l_1_0_7)))
 (let ((?x1116 (* (/ 7.0 20.0) l_1_0_6)))
 (let ((?x1021 (* (/ 49.0 400.0) l_1_0_5)))
 (let ((?x47 (* (/ 49.0 400.0) l_1_0_4)))
 (let ((?x1730 (* (/ 49.0 400.0) l_1_0_2)))
 (let ((?x1731 (* l_1_0_15 l_1_0_15)))
 (let ((?x55 (* (/ 49.0 400.0) l_1_0_13)))
 (let ((?x1734 (- (+ (+ _a_0_ (* (/ 7.0 20.0) l_1_0_1)) (* (/ 7.0 20.0) l_1_0_10)) l_1_0_11)))
 (let ((?x1729 (- (- (- (- (- (- ?x1734 l_1_0_12) ?x55) l_1_0_14) ?x1731) ?x1730) l_1_0_3)))
 (= (+ (+ (+ (+ (- (- ?x1729 ?x47) ?x1021) ?x1116) ?x1118) ?x757) ?x1710) 0.0)))))))))))))
(assert
 (let ((?x1532 (* (/ 36.0 25.0) l_1_0_4)))
 (let ((?x1530 (* (/ 36.0 25.0) l_1_0_2)))
 (let ((?x1527 (- (- _a_1_ (* (* 2.0 l_1_0_16) l_1_0_18)) (* (* 2.0 l_1_0_17) l_1_0_19))))
 (= (- (- ?x1527 ?x1530) ?x1532) 0.0)))))
(assert
 (let ((?x1394 (* (/ 6.0 5.0) l_1_0_8)))
 (let ((?x1391 (* (/ 21.0 25.0) l_1_0_5)))
 (let ((?x1430 (* (/ 21.0 50.0) l_1_0_4)))
 (let ((?x1428 (* (/ 21.0 50.0) l_1_0_2)))
 (let ((?x1427 (- (- (- _a_2_ (* (/ 6.0 5.0) l_1_0_1)) (* (/ 6.0 5.0) l_1_0_10)) (* (* 2.0 l_1_0_15) l_1_0_18))))
 (= (- (+ (+ (+ ?x1427 ?x1428) ?x1430) ?x1391) ?x1394) 0.0)))))))
(assert
 (let ((?x1264 (* (/ 6.0 5.0) l_1_0_9)))
 (let ((?x1351 (* (/ 6.0 5.0) l_1_0_7)))
 (let ((?x1350 (* (/ 6.0 5.0) l_1_0_6)))
 (let ((?x1430 (* (/ 21.0 50.0) l_1_0_4)))
 (let ((?x1428 (* (/ 21.0 50.0) l_1_0_2)))
 (let ((?x1344 (* (/ 21.0 25.0) l_1_0_13)))
 (let ((?x1345 (+ _a_3_ ?x1344)))
 (let ((?x1107 (- (+ (+ (- ?x1345 (* (* 2.0 l_1_0_15) l_1_0_16)) ?x1428) ?x1430) ?x1350)))
 (= (- (- ?x1107 ?x1351) ?x1264) 0.0))))))))))
(assert
 (let ((?x1175 (* (/ 107.0 50.0) l_1_0_5)))
 (let ((?x1241 (* (/ 7.0 20.0) l_1_0_4)))
 (let ((?x1239 (* l_1_0_20 l_1_0_20)))
 (let ((?x1237 (* (/ 7.0 20.0) l_1_0_2)))
 (let ((?x1236 (* l_1_0_19 l_1_0_19)))
 (let ((?x1157 (- (- (+ (+ _a_4_ l_1_0_1) l_1_0_10) (* l_1_0_18 l_1_0_18)) ?x1236)))
 (= (+ (- (- (- (- ?x1157 ?x1237) ?x1239) ?x1241) ?x1175) l_1_0_8) 0.0))))))))
(assert
 (let ((?x1241 (* (/ 7.0 20.0) l_1_0_4)))
 (let ((?x1237 (* (/ 7.0 20.0) l_1_0_2)))
 (let ((?x1127 (* l_1_0_17 l_1_0_17)))
 (let ((?x1128 (- (- (- _a_5_ (* (/ 107.0 50.0) l_1_0_13)) (* l_1_0_16 l_1_0_16)) ?x1127)))
 (= (+ (+ (+ (- (- ?x1128 ?x1237) ?x1241) l_1_0_6) l_1_0_7) l_1_0_9) 0.0))))))
(assert
 (= (+ (* (/ 6.0 5.0) l_1_0_2) (* (/ 6.0 5.0) l_1_0_4)) 0.0))
(assert
 (= (+ (* (/ 6.0 5.0) l_1_0_2) (* (/ 6.0 5.0) l_1_0_4)) 0.0))
(assert
 (= (- (- l_1_0_2) l_1_0_4) 0.0))
(assert
 (= (* (/ 12.0 5.0) l_1_0_5) 0.0))
(assert
 (= (- l_1_0_5) 0.0))
(assert
 (= (* (/ 12.0 5.0) l_1_0_13) 0.0))
(assert
 (= (- l_1_0_13) 0.0))
(assert
 (>= l_1_0_1 0.0))
(assert
 (>= l_1_0_2 0.0))
(assert
 (>= l_1_0_3 0.0))
(assert
 (>= l_1_0_4 0.0))
(assert
 (>= l_1_0_5 0.0))
(assert
 (>= l_1_0_6 0.0))
(assert
 (>= l_1_0_7 0.0))
(assert
 (>= l_1_0_8 0.0))
(assert
 (>= l_1_0_9 0.0))
(assert
 (>= l_1_0_10 0.0))
(assert
 (>= l_1_0_11 0.0))
(assert
 (>= l_1_0_12 0.0))
(assert
 (>= l_1_0_13 0.0))
(assert
 (>= l_1_0_14 0.0))
(assert
 (>= l_1_0_15 0.0))
(assert
 (>= l_1_0_17 0.0))
(assert
 (>= l_1_0_20 0.0))
(assert
 (let ((?x690 (* l_1_1_15 l_1_1_15)))
 (let ((?x960 (* _a_0_ l_1_1_9)))
 (let ((?x1000 (* _a_0_ l_1_1_2)))
 (let ((?x652 (+ (+ (* (- _a_0_) l_1_1_1) (* (* 1.0 _a_0_) l_1_1_10)) (* (* 1.0 _a_0_) l_1_1_11))))
 (let ((?x961 (- (+ (- (- ?x652 ?x1000) ?x960) (* 1.0 l_1_1_12)) (* (* l_1_1_13 _a_0_) _a_0_))))
 (let ((?x965 (+ (- (- (- (- ?x961 l_1_1_14) ?x690) l_1_1_3) l_1_1_4) (* 1.0 l_1_1_5))))
 (let ((?x911 (+ (- (+ (- ?x965 (* 1.0 l_1_1_6)) (* 1.0 l_1_1_7)) l_1_1_8) (/ 9.0 25.0))))
 (= ?x911 0.0)))))))))
(assert
 (let ((?x555 (* 2.0 l_1_1_6)))
 (let ((?x625 (* l_1_1_17 l_1_1_17)))
 (let ((?x622 (* l_1_1_16 l_1_1_16)))
 (let ((?x700 (* _a_5_ l_1_1_9)))
 (let ((?x649 (- (- (- (* (- _a_5_) l_1_1_1) (* _a_5_ l_1_1_2)) ?x700) (* l_1_1_10 (- _a_0_ (* 1.0 _a_5_))))))
 (let ((?x621 (- (- (- ?x649 (* l_1_1_11 (- _a_0_ (* 1.0 _a_5_)))) l_1_1_12) (* l_1_1_13 (+ (* (* 2.0 _a_0_) _a_5_) (* _a_3_ _a_3_))))))
 (let ((?x560 (- (- (+ (- (- (- ?x621 ?x622) ?x625) l_1_1_5) ?x555) l_1_1_7) 1.0)))
 (= ?x560 0.0)))))))))
(assert
 (let ((?x555 (* 2.0 l_1_1_6)))
 (let ((?x419 (* l_1_1_20 l_1_1_20)))
 (let ((?x285 (* l_1_1_19 l_1_1_19)))
 (let ((?x282 (* l_1_1_18 l_1_1_18)))
 (let ((?x427 (* _a_4_ l_1_1_9)))
 (let ((?x432 (- (- (- (* (- _a_4_) l_1_1_1) (* _a_4_ l_1_1_2)) ?x427) (* l_1_1_10 (- _a_0_ (* 1.0 _a_4_))))))
 (let ((?x416 (- (- (- ?x432 (* l_1_1_11 (- _a_0_ (* 1.0 _a_4_)))) l_1_1_12) (* l_1_1_13 (+ (* (* 2.0 _a_0_) _a_4_) (* _a_2_ _a_2_))))))
 (let ((?x407 (- (+ (- (- (- (- ?x416 ?x282) ?x285) ?x419) l_1_1_5) ?x555) l_1_1_7)))
 (= (- ?x407 1.0) 0.0))))))))))
(assert
 (let ((?x246 (+ (* (* 2.0 _a_0_) _a_1_) (* (* 2.0 _a_2_) _a_3_))))
 (let ((?x239 (* _a_1_ l_1_1_9)))
 (let ((?x237 (* _a_1_ l_1_1_2)))
 (let ((?x27 (+ (+ (* (- _a_1_) l_1_1_1) (* (* 1.0 _a_1_) l_1_1_10)) (* (* 1.0 _a_1_) l_1_1_11))))
 (let ((?x251 (- (- (- (- ?x27 ?x237) ?x239) (* l_1_1_13 ?x246)) (* (* 2.0 l_1_1_16) l_1_1_18))))
 (= (- ?x251 (* (* 2.0 l_1_1_17) l_1_1_19)) 0.0)))))))
(assert
 (let ((?x1593 (* _a_2_ l_1_1_9)))
 (let ((?x1591 (* _a_2_ l_1_1_2)))
 (let ((?x939 (* _a_2_ l_1_1_1)))
 (let ((?x954 (+ (- (* (* (* (- 2.0) _a_0_) _a_2_) l_1_1_13) ?x939) (* (* 1.0 _a_2_) l_1_1_10))))
 (let ((?x1184 (- (- (- (+ ?x954 (* (* 1.0 _a_2_) l_1_1_11)) ?x1591) ?x1593) (* (* 2.0 l_1_1_15) l_1_1_18))))
 (= ?x1184 0.0)))))))
(assert
 (let ((?x214 (* _a_3_ l_1_1_9)))
 (let ((?x191 (* _a_3_ l_1_1_2)))
 (let ((?x1210 (* _a_3_ l_1_1_1)))
 (let ((?x976 (+ (- (* (* (* (- 2.0) _a_0_) _a_3_) l_1_1_13) ?x1210) (* (* 1.0 _a_3_) l_1_1_10))))
 (let ((?x876 (- (- (- (+ ?x976 (* (* 1.0 _a_3_) l_1_1_11)) ?x191) ?x214) (* (* 2.0 l_1_1_15) l_1_1_16))))
 (= ?x876 0.0)))))))
(assert
 (let ((?x528 (- (- (* (- _a_5_) l_1_1_10) (* _a_5_ l_1_1_11)) (* (* l_1_1_13 _a_5_) _a_5_))))
 (= (- ?x528 l_1_1_6) 0.0)))
(assert
 (let ((?x555 (* 2.0 l_1_1_6)))
 (let ((?x1140 (- (* (- l_1_1_10) (+ _a_4_ _a_5_)) (* l_1_1_11 (+ _a_4_ _a_5_)))))
 (let ((?x1355 (- ?x1140 (* l_1_1_13 (+ (* _a_1_ _a_1_) (* (* 2.0 _a_4_) _a_5_))))))
 (= (- ?x1355 ?x555) 0.0)))))
(assert
 (let ((?x1031 (- (- (* (- _a_4_) l_1_1_10) (* _a_4_ l_1_1_11)) (* (* l_1_1_13 _a_4_) _a_4_))))
 (= (- ?x1031 l_1_1_6) 0.0)))
(assert
 (let ((?x200 (* _a_1_ l_1_1_11)))
 (let ((?x170 (* _a_1_ l_1_1_10)))
 (= (- (- (* (* (* (- 2.0) _a_1_) _a_5_) l_1_1_13) ?x170) ?x200) 0.0))))
(assert
 (let ((?x200 (* _a_1_ l_1_1_11)))
 (let ((?x170 (* _a_1_ l_1_1_10)))
 (= (- (- (* (* (* (- 2.0) _a_1_) _a_4_) l_1_1_13) ?x170) ?x200) 0.0))))
(assert
 (let ((?x1051 (+ (* (* 2.0 _a_1_) _a_3_) (* (* 2.0 _a_2_) _a_5_))))
 (let ((?x1053 (- (- (* (- _a_2_) l_1_1_10) (* _a_2_ l_1_1_11)) (* l_1_1_13 ?x1051))))
 (= ?x1053 0.0))))
(assert
 (let ((?x1697 (* _a_2_ l_1_1_11)))
 (let ((?x1696 (* _a_2_ l_1_1_10)))
 (= (- (- (* (* (* (- 2.0) _a_2_) _a_4_) l_1_1_13) ?x1696) ?x1697) 0.0))))
(assert
 (let ((?x896 (* _a_3_ l_1_1_11)))
 (let ((?x894 (* _a_3_ l_1_1_10)))
 (= (- (- (* (* (* (- 2.0) _a_3_) _a_5_) l_1_1_13) ?x894) ?x896) 0.0))))
(assert
 (let ((?x386 (+ (* (* 2.0 _a_1_) _a_2_) (* (* 2.0 _a_3_) _a_4_))))
 (let ((?x1370 (- (- (* (- _a_3_) l_1_1_10) (* _a_3_ l_1_1_11)) (* l_1_1_13 ?x386))))
 (= ?x1370 0.0))))
(assert
 (>= l_1_1_1 0.0))
(assert
 (>= l_1_1_2 0.0))
(assert
 (>= l_1_1_3 0.0))
(assert
 (>= l_1_1_4 0.0))
(assert
 (>= l_1_1_5 0.0))
(assert
 (>= l_1_1_6 0.0))
(assert
 (>= l_1_1_7 0.0))
(assert
 (>= l_1_1_8 0.0))
(assert
 (>= l_1_1_9 0.0))
(assert
 (>= l_1_1_10 0.0))
(assert
 (>= l_1_1_11 0.0))
(assert
 (>= l_1_1_12 0.0))
(assert
 (>= l_1_1_13 0.0))
(assert
 (>= l_1_1_14 0.0))
(assert
 (>= l_1_1_15 0.0))
(assert
 (>= l_1_1_17 0.0))
(assert
 (>= l_1_1_20 0.0))
(assert
 (let ((?x352 (* l_1_2_15 l_1_2_15)))
 (let ((?x1401 (* _a_0_ l_1_2_9)))
 (let ((?x266 (* _a_0_ l_1_2_3)))
 (let ((?x263 (- (- (* (- _a_0_) l_1_2_10) (* (* 1.0 _a_0_) l_1_2_12)) ?x266)))
 (let ((?x1406 (- (+ (- (- ?x263 (* (* 1.0 _a_0_) l_1_2_8)) ?x1401) _a_0_) l_1_2_1)))
 (let ((?x1409 (- (- (- ?x1406 (* 1.0 l_1_2_11)) (* (* l_1_2_13 _a_0_) _a_0_)) l_1_2_14)))
 (let ((?x1610 (- (- (- (- (- ?x1409 ?x352) l_1_2_2) l_1_2_4) (* 1.0 l_1_2_5)) (* 1.0 l_1_2_6))))
 (= (- ?x1610 (* 1.0 l_1_2_7)) 0.0)))))))))
(assert
 (let ((?x642 (* (/ 1.0 4.0) _a_5_)))
 (let ((?x1634 (* _a_5_ l_1_2_8)))
 (let ((?x1635 (+ (+ (+ (* (- (/ 3.0 10.0)) _a_1_) (* (/ 9.0 25.0) _a_4_)) (* _a_5_ l_1_2_12)) ?x1634)))
 (= (- (- (+ ?x1635 ?x642) (* (* l_1_2_13 _a_5_) _a_5_)) l_1_2_6) 0.0)))))
(assert
 (let ((?x1061 (* 2.0 l_1_2_6)))
 (let ((?x1293 (- (+ (- (* (- (/ 9.0 100.0)) _a_1_) (* (/ 9.0 25.0) _a_4_)) (* (/ 2.0 5.0) _a_5_)) (* l_1_2_12 (- (- _a_4_) _a_5_)))))
 (let ((?x1295 (- ?x1293 (* l_1_2_13 (+ (* _a_1_ _a_1_) (* (* 2.0 _a_4_) _a_5_))))))
 (= (- (- ?x1295 ?x1061) (* l_1_2_8 (- (- _a_4_) _a_5_))) 0.0)))))
(assert
 (let ((?x1650 (* (/ 4.0 25.0) _a_5_)))
 (let ((?x1438 (* (/ 9.0 100.0) _a_4_)))
 (let ((?x314 (* _a_4_ l_1_2_8)))
 (let ((?x1652 (+ (+ (+ (+ (* (/ 3.0 25.0) _a_1_) (* _a_4_ l_1_2_12)) ?x314) ?x1438) ?x1650)))
 (= (- (- ?x1652 (* (* l_1_2_13 _a_4_) _a_4_)) l_1_2_6) 0.0))))))
(assert
 (let ((?x1061 (* 2.0 l_1_2_6)))
 (let ((?x192 (* l_1_2_17 l_1_2_17)))
 (let ((?x928 (* l_1_2_16 l_1_2_16)))
 (let ((?x1373 (* _a_5_ l_1_2_9)))
 (let ((?x138 (* _a_5_ l_1_2_3)))
 (let ((?x146 (- (- (+ (* (- (/ 3.0 5.0)) _a_2_) (* (/ 1.0 2.0) _a_3_)) (* _a_5_ l_1_2_10)) ?x138)))
 (let ((?x920 (- (+ (- ?x146 ?x1373) l_1_2_11) (* l_1_2_12 (+ (- _a_0_) (* 1.0 _a_5_))))))
 (let ((?x927 (- ?x920 (* l_1_2_13 (+ (* (* 2.0 _a_0_) _a_5_) (* _a_3_ _a_3_))))))
 (let ((?x532 (- (+ (+ (+ (- (- ?x927 ?x928) ?x192) l_1_2_5) ?x1061) l_1_2_7) (* l_1_2_8 (+ (- _a_0_) (* 1.0 _a_5_))))))
 (= ?x532 0.0)))))))))))
(assert
 (let ((?x1061 (* 2.0 l_1_2_6)))
 (let ((?x631 (* l_1_2_20 l_1_2_20)))
 (let ((?x874 (* l_1_2_19 l_1_2_19)))
 (let ((?x993 (* l_1_2_18 l_1_2_18)))
 (let ((?x159 (* _a_4_ l_1_2_9)))
 (let ((?x163 (* _a_4_ l_1_2_3)))
 (let ((?x157 (- (- (+ (* (/ 3.0 10.0) _a_2_) (* (/ 2.0 5.0) _a_3_)) (* _a_4_ l_1_2_10)) ?x163)))
 (let ((?x1669 (- (+ (- ?x157 ?x159) l_1_2_11) (* l_1_2_12 (+ (- _a_0_) (* 1.0 _a_4_))))))
 (let ((?x1671 (- ?x1669 (* l_1_2_13 (+ (* (* 2.0 _a_0_) _a_4_) (* _a_2_ _a_2_))))))
 (let ((?x634 (+ (+ (+ (- (- (- ?x1671 ?x993) ?x874) ?x631) l_1_2_5) ?x1061) l_1_2_7)))
 (= (- ?x634 (* l_1_2_8 (+ (- _a_0_) (* 1.0 _a_4_)))) 0.0))))))))))))
(assert
 (let ((?x246 (+ (* (* 2.0 _a_0_) _a_1_) (* (* 2.0 _a_2_) _a_3_))))
 (let ((?x184 (* _a_1_ l_1_2_9)))
 (let ((?x802 (* _a_1_ l_1_2_3)))
 (let ((?x1077 (- (- (* (- _a_1_) l_1_2_10) (* (* 1.0 _a_1_) l_1_2_12)) ?x802)))
 (let ((?x1255 (- (- (- ?x1077 (* (* 1.0 _a_1_) l_1_2_8)) ?x184) (* l_1_2_13 ?x246))))
 (let ((?x838 (- (- ?x1255 (* (* 2.0 l_1_2_16) l_1_2_18)) (* (* 2.0 l_1_2_17) l_1_2_19))))
 (= ?x838 0.0))))))))
(assert
 (let ((?x1518 (* _a_2_ l_1_2_9)))
 (let ((?x1700 (* _a_2_ l_1_2_3)))
 (let ((?x1446 (* _a_2_ l_1_2_10)))
 (let ((?x1062 (- (- (* (* (* (- 2.0) _a_0_) _a_2_) l_1_2_13) ?x1446) (* (* 1.0 _a_2_) l_1_2_12))))
 (let ((?x541 (- (- (- (- ?x1062 ?x1700) (* (* 1.0 _a_2_) l_1_2_8)) ?x1518) (* (* 2.0 l_1_2_15) l_1_2_18))))
 (= ?x541 0.0)))))))
(assert
 (let ((?x1384 (* _a_3_ l_1_2_9)))
 (let ((?x262 (* _a_3_ l_1_2_3)))
 (let ((?x1570 (* _a_3_ l_1_2_10)))
 (let ((?x1568 (- (- (* (* (* (- 2.0) _a_0_) _a_3_) l_1_2_13) ?x1570) (* (* 1.0 _a_3_) l_1_2_12))))
 (let ((?x1537 (- (- (- (- ?x1568 ?x262) (* (* 1.0 _a_3_) l_1_2_8)) ?x1384) (* (* 2.0 l_1_2_15) l_1_2_16))))
 (= ?x1537 0.0)))))))
(assert
 (let ((?x398 (* _a_1_ l_1_2_8)))
 (let ((?x1246 (* _a_1_ l_1_2_12)))
 (= (+ (+ (* (* (* (- 2.0) _a_1_) _a_5_) l_1_2_13) ?x1246) ?x398) 0.0))))
(assert
 (let ((?x1051 (+ (* (* 2.0 _a_1_) _a_3_) (* (* 2.0 _a_2_) _a_5_))))
 (let ((?x1320 (* _a_2_ l_1_2_8)))
 (let ((?x1300 (* _a_2_ l_1_2_12)))
 (let ((?x898 (+ ?x1300 ?x1320)))
 (= (- ?x898 (* l_1_2_13 ?x1051)) 0.0))))))
(assert
 (let ((?x1719 (* _a_3_ l_1_2_8)))
 (let ((?x780 (* _a_3_ l_1_2_12)))
 (= (+ (+ (* (* (* (- 2.0) _a_3_) _a_5_) l_1_2_13) ?x780) ?x1719) 0.0))))
(assert
 (let ((?x398 (* _a_1_ l_1_2_8)))
 (let ((?x1246 (* _a_1_ l_1_2_12)))
 (= (+ (+ (* (* (* (- 2.0) _a_1_) _a_4_) l_1_2_13) ?x1246) ?x398) 0.0))))
(assert
 (let ((?x1320 (* _a_2_ l_1_2_8)))
 (let ((?x1300 (* _a_2_ l_1_2_12)))
 (= (+ (+ (* (* (* (- 2.0) _a_2_) _a_4_) l_1_2_13) ?x1300) ?x1320) 0.0))))
(assert
 (let ((?x386 (+ (* (* 2.0 _a_1_) _a_2_) (* (* 2.0 _a_3_) _a_4_))))
 (let ((?x1719 (* _a_3_ l_1_2_8)))
 (let ((?x780 (* _a_3_ l_1_2_12)))
 (let ((?x1065 (+ ?x780 ?x1719)))
 (= (- ?x1065 (* l_1_2_13 ?x386)) 0.0))))))
(assert
 (>= l_1_2_1 0.0))
(assert
 (>= l_1_2_2 0.0))
(assert
 (>= l_1_2_3 0.0))
(assert
 (>= l_1_2_4 0.0))
(assert
 (>= l_1_2_5 0.0))
(assert
 (>= l_1_2_6 0.0))
(assert
 (>= l_1_2_7 0.0))
(assert
 (>= l_1_2_8 0.0))
(assert
 (>= l_1_2_9 0.0))
(assert
 (>= l_1_2_10 0.0))
(assert
 (>= l_1_2_11 0.0))
(assert
 (>= l_1_2_12 0.0))
(assert
 (>= l_1_2_13 0.0))
(assert
 (>= l_1_2_14 0.0))
(assert
 (>= l_1_2_15 0.0))
(assert
 (>= l_1_2_17 0.0))
(assert
 (>= l_1_2_20 0.0))
(check-sat)
(get-model)